
Gurobi 10.0.1 (linux64) logging started Sun Nov 26 15:43:42 2023

Set parameter LogFile to value "ArtificialInstance/ExperimentV2/S3T5K1/AdRo/gurobiDoRo50.txt"
Gurobi Optimizer version 10.0.1 build v10.0.1rc0 (linux64)

CPU model: AMD EPYC 7H12 64-Core Processor, instruction set [SSE2|AVX|AVX2]
Thread count: 128 physical cores, 128 logical processors, using up to 32 threads

Academic license 656792 - for non-commercial use only - registered to b.___@student.vu.nl
Optimize a model with 4527 rows, 4165 columns and 16399 nonzeros
Model fingerprint: 0x17031c62
Variable types: 1 continuous, 4164 integer (4164 binary)
Coefficient statistics:
  Matrix range     [1e+00, 4e+01]
  Objective range  [1e+00, 2e+01]
  Bounds range     [1e+00, 1e+00]
  RHS range        [1e+00, 1e+00]
Presolve removed 1720 rows and 1393 columns
Presolve time: 0.05s
Presolved: 2807 rows, 2772 columns, 10788 nonzeros
Variable types: 1 continuous, 2771 integer (2771 binary)
Found heuristic solution: objective 100.3558505

Root relaxation: objective 8.434324e+01, 1069 iterations, 0.02 seconds (0.01 work units)

    Nodes    |    Current Node    |     Objective Bounds      |     Work
 Expl Unexpl |  Obj  Depth IntInf | Incumbent    BestBd   Gap | It/Node Time

H    0     0                      84.3432406   40.60025  51.9%     -    0s
     0     0          -    0        84.34324   84.34324  0.00%     -    0s

Explored 1 nodes (1585 simplex iterations) in 0.11 seconds (0.08 work units)
Thread count was 32 (of 128 available processors)

Solution count 2: 84.3432 100.356 

Optimal solution found (tolerance 1.00e-04)
Best objective 8.434324056798e+01, best bound 8.434324056798e+01, gap 0.0000%
